n_res = 4;
rc = [ 42, 39, 37, 46 ];
n_tasks = 30;
d = [ 4, 1, 8, 8, 6, 2, 10, 1, 1, 5, 8, 6, 6, 4, 7, 3, 1, 7, 5, 2, 5, 8, 1, 3, 10, 4, 9, 4, 6, 9 ];
rr = [| 4, 3, 5, 10, 5, 9, 1, 9, 4, 2, 5, 3, 9, 2, 3, 2, 8, 5, 5, 3, 6, 8, 8, 1, 3, 10, 7, 2, 8, 1
      | 5, 4, 6, 2, 8, 9, 2, 2, 5, 2, 1, 1, 6, 5, 6, 4, 7, 1, 9, 6, 5, 8, 8, 6, 3, 5, 3, 4, 7, 8
      | 6, 7, 4, 2, 5, 1, 1, 3, 8, 4, 3, 4, 2, 2, 3, 9, 1, 10, 8, 10, 7, 10, 5, 6, 2, 10, 6, 3, 2, 1
      | 2, 6, 5, 2, 6, 8, 3, 5, 1, 10, 3, 6, 10, 6, 8, 4, 6, 3, 4, 3, 5, 6, 1, 3, 2, 2, 7, 5, 3, 3 |];
suc = [ { 2 }, 
        { 1 }, 
        { 4 }, 
        { 3 }, 
        { 6 }, 
        { 5 }, 
        { 8 }, 
        { 7 }, 
        { 10 }, 
        { 9 }, 
        { 12 }, 
        { 11 }, 
        { 14 }, 
        { 13 }, 
        { 16 }, 
        { 15 }, 
        { 18 }, 
        { 17 }, 
        { 20 }, 
        { 19 }, 
        { 22 }, 
        { 21 }, 
        { 24 }, 
        { 23 }, 
        { 26 }, 
        { 25 }, 
        { 28 }, 
        { 27 }, 
        { 30 }, 
        { 29 }]; 
